(set-info :smt-lib-version 2.6)
(set-logic ALL)
(set-info :source |
Benchmarks used in the followin paper:
Big proof engines as little proof engines: new results on rewrite-based satisfiability procedure
Alessandro Armando, Maria Paola Bonacina, Silvio Ranise, Stephan Schulz. 
PDPAR'05
http://www.ai.dist.unige.it/pdpar05/


|)
(set-info :category "crafted")
(set-info :status unsat)

(declare-sort Element 0)
(declare-fun a_1279 () (Seq Element))
(declare-fun a_1280 () (Seq Element))
(declare-fun a_1281 () (Seq Element))
(declare-fun a_1282 () (Seq Element))
(declare-fun a_1283 () (Seq Element))
(declare-fun a_1284 () (Seq Element))
(declare-fun a_1285 () (Seq Element))
(declare-fun a_1286 () (Seq Element))
(declare-fun a_1287 () (Seq Element))
(declare-fun a_1288 () (Seq Element))
(declare-fun a_1289 () (Seq Element))
(declare-fun a_1290 () (Seq Element))
(declare-fun a_1291 () (Seq Element))
(declare-fun a_1292 () (Seq Element))
(declare-fun a_1293 () (Seq Element))
(declare-fun a_1294 () (Seq Element))
(declare-fun a_1295 () (Seq Element))
(declare-fun a_1296 () (Seq Element))
(declare-fun a_1297 () (Seq Element))
(declare-fun a_1298 () (Seq Element))
(declare-fun a_1299 () (Seq Element))
(declare-fun a_1300 () (Seq Element))
(declare-fun a_1301 () (Seq Element))
(declare-fun a_1302 () (Seq Element))
(declare-fun a_1303 () (Seq Element))
(declare-fun a_1304 () (Seq Element))
(declare-fun a_1305 () (Seq Element))
(declare-fun a_1306 () (Seq Element))
(declare-fun a_1307 () (Seq Element))
(declare-fun a_1308 () (Seq Element))
(declare-fun a_1309 () (Seq Element))
(declare-fun a_1310 () (Seq Element))
(declare-fun a_1311 () (Seq Element))
(declare-fun a_1312 () (Seq Element))
(declare-fun a_1313 () (Seq Element))
(declare-fun a_1314 () (Seq Element))
(declare-fun a_1315 () (Seq Element))
(declare-fun a_1316 () (Seq Element))
(declare-fun a_1317 () (Seq Element))
(declare-fun a_1318 () (Seq Element))
(declare-fun a_1319 () (Seq Element))
(declare-fun a_1320 () (Seq Element))
(declare-fun a_1321 () (Seq Element))
(declare-fun a_1322 () (Seq Element))
(declare-fun a_1323 () (Seq Element))
(declare-fun a_1324 () (Seq Element))
(declare-fun a_1325 () (Seq Element))
(declare-fun a_1326 () (Seq Element))
(declare-fun a_1327 () (Seq Element))
(declare-fun a_1328 () (Seq Element))
(declare-fun a_1329 () (Seq Element))
(declare-fun a_1330 () (Seq Element))
(declare-fun a_1331 () (Seq Element))
(declare-fun a_1332 () (Seq Element))
(declare-fun a_1333 () (Seq Element))
(declare-fun a_1334 () (Seq Element))
(declare-fun a_1335 () (Seq Element))
(declare-fun a_1336 () (Seq Element))
(declare-fun a_1337 () (Seq Element))
(declare-fun a_1338 () (Seq Element))
(declare-fun a_1339 () (Seq Element))
(declare-fun a_1340 () (Seq Element))
(declare-fun a_1341 () (Seq Element))
(declare-fun a_1342 () (Seq Element))
(declare-fun a_1343 () (Seq Element))
(declare-fun a_1344 () (Seq Element))
(declare-fun a_1345 () (Seq Element))
(declare-fun a_1346 () (Seq Element))
(declare-fun a_1347 () (Seq Element))
(declare-fun a_1348 () (Seq Element))
(declare-fun a_1349 () (Seq Element))
(declare-fun a_1350 () (Seq Element))
(declare-fun a_1351 () (Seq Element))
(declare-fun a_1352 () (Seq Element))
(declare-fun a_1353 () (Seq Element))
(declare-fun a_1354 () (Seq Element))
(declare-fun a_1355 () (Seq Element))
(declare-fun a_1356 () (Seq Element))
(declare-fun a_1357 () (Seq Element))
(declare-fun a_1358 () (Seq Element))
(declare-fun a1 () (Seq Element))
(declare-fun e1 () Element)
(declare-fun e10 () Element)
(declare-fun e11 () Element)
(declare-fun e12 () Element)
(declare-fun e13 () Element)
(declare-fun e14 () Element)
(declare-fun e15 () Element)
(declare-fun e16 () Element)
(declare-fun e17 () Element)
(declare-fun e18 () Element)
(declare-fun e19 () Element)
(declare-fun e2 () Element)
(declare-fun e20 () Element)
(declare-fun e21 () Element)
(declare-fun e22 () Element)
(declare-fun e23 () Element)
(declare-fun e24 () Element)
(declare-fun e25 () Element)
(declare-fun e26 () Element)
(declare-fun e27 () Element)
(declare-fun e28 () Element)
(declare-fun e29 () Element)
(declare-fun e3 () Element)
(declare-fun e30 () Element)
(declare-fun e31 () Element)
(declare-fun e32 () Element)
(declare-fun e33 () Element)
(declare-fun e34 () Element)
(declare-fun e35 () Element)
(declare-fun e36 () Element)
(declare-fun e37 () Element)
(declare-fun e38 () Element)
(declare-fun e39 () Element)
(declare-fun e4 () Element)
(declare-fun e40 () Element)
(declare-fun e5 () Element)
(declare-fun e6 () Element)
(declare-fun e7 () Element)
(declare-fun e8 () Element)
(declare-fun e9 () Element)
(declare-fun i1 () Int)
(declare-fun i10 () Int)
(declare-fun i11 () Int)
(declare-fun i12 () Int)
(declare-fun i13 () Int)
(declare-fun i14 () Int)
(declare-fun i15 () Int)
(declare-fun i16 () Int)
(declare-fun i17 () Int)
(declare-fun i18 () Int)
(declare-fun i19 () Int)
(declare-fun i2 () Int)
(declare-fun i20 () Int)
(declare-fun i21 () Int)
(declare-fun i22 () Int)
(declare-fun i23 () Int)
(declare-fun i24 () Int)
(declare-fun i25 () Int)
(declare-fun i26 () Int)
(declare-fun i27 () Int)
(declare-fun i28 () Int)
(declare-fun i29 () Int)
(declare-fun i3 () Int)
(declare-fun i30 () Int)
(declare-fun i31 () Int)
(declare-fun i32 () Int)
(declare-fun i33 () Int)
(declare-fun i34 () Int)
(declare-fun i35 () Int)
(declare-fun i36 () Int)
(declare-fun i37 () Int)
(declare-fun i38 () Int)
(declare-fun i39 () Int)
(declare-fun i4 () Int)
(declare-fun i40 () Int)
(declare-fun i5 () Int)
(declare-fun i6 () Int)
(declare-fun i7 () Int)
(declare-fun i8 () Int)
(declare-fun i9 () Int)
(assert (= a_1279 (seq.update a1 i1 (seq.unit e1))))
(assert (= a_1280 (seq.update a_1279 i2 (seq.unit e2))))
(assert (= a_1281 (seq.update a_1280 i3 (seq.unit e3))))
(assert (= a_1282 (seq.update a_1281 i4 (seq.unit e4))))
(assert (= a_1283 (seq.update a_1282 i5 (seq.unit e5))))
(assert (= a_1284 (seq.update a_1283 i6 (seq.unit e6))))
(assert (= a_1285 (seq.update a_1284 i7 (seq.unit e7))))
(assert (= a_1286 (seq.update a_1285 i8 (seq.unit e8))))
(assert (= a_1287 (seq.update a_1286 i9 (seq.unit e9))))
(assert (= a_1288 (seq.update a_1287 i10 (seq.unit e10))))
(assert (= a_1289 (seq.update a_1288 i11 (seq.unit e11))))
(assert (= a_1290 (seq.update a_1289 i12 (seq.unit e12))))
(assert (= a_1291 (seq.update a_1290 i13 (seq.unit e13))))
(assert (= a_1292 (seq.update a_1291 i14 (seq.unit e14))))
(assert (= a_1293 (seq.update a_1292 i15 (seq.unit e15))))
(assert (= a_1294 (seq.update a_1293 i16 (seq.unit e16))))
(assert (= a_1295 (seq.update a_1294 i17 (seq.unit e17))))
(assert (= a_1296 (seq.update a_1295 i18 (seq.unit e18))))
(assert (= a_1297 (seq.update a_1296 i19 (seq.unit e19))))
(assert (= a_1298 (seq.update a_1297 i20 (seq.unit e20))))
(assert (= a_1299 (seq.update a_1298 i21 (seq.unit e21))))
(assert (= a_1300 (seq.update a_1299 i22 (seq.unit e22))))
(assert (= a_1301 (seq.update a_1300 i23 (seq.unit e23))))
(assert (= a_1302 (seq.update a_1301 i24 (seq.unit e24))))
(assert (= a_1303 (seq.update a_1302 i25 (seq.unit e25))))
(assert (= a_1304 (seq.update a_1303 i26 (seq.unit e26))))
(assert (= a_1305 (seq.update a_1304 i27 (seq.unit e27))))
(assert (= a_1306 (seq.update a_1305 i28 (seq.unit e28))))
(assert (= a_1307 (seq.update a_1306 i29 (seq.unit e29))))
(assert (= a_1308 (seq.update a_1307 i30 (seq.unit e30))))
(assert (= a_1309 (seq.update a_1308 i31 (seq.unit e31))))
(assert (= a_1310 (seq.update a_1309 i32 (seq.unit e32))))
(assert (= a_1311 (seq.update a_1310 i33 (seq.unit e33))))
(assert (= a_1312 (seq.update a_1311 i34 (seq.unit e34))))
(assert (= a_1313 (seq.update a_1312 i35 (seq.unit e35))))
(assert (= a_1314 (seq.update a_1313 i36 (seq.unit e36))))
(assert (= a_1315 (seq.update a_1314 i37 (seq.unit e37))))
(assert (= a_1316 (seq.update a_1315 i38 (seq.unit e38))))
(assert (= a_1317 (seq.update a_1316 i39 (seq.unit e39))))
(assert (= a_1318 (seq.update a_1317 i40 (seq.unit e40))))
(assert (= a_1319 (seq.update a1 i14 (seq.unit e14))))
(assert (= a_1320 (seq.update a_1319 i27 (seq.unit e27))))
(assert (= a_1321 (seq.update a_1320 i34 (seq.unit e34))))
(assert (= a_1322 (seq.update a_1321 i12 (seq.unit e12))))
(assert (= a_1323 (seq.update a_1322 i36 (seq.unit e36))))
(assert (= a_1324 (seq.update a_1323 i32 (seq.unit e32))))
(assert (= a_1325 (seq.update a_1324 i9 (seq.unit e9))))
(assert (= a_1326 (seq.update a_1325 i8 (seq.unit e8))))
(assert (= a_1327 (seq.update a_1326 i33 (seq.unit e33))))
(assert (= a_1328 (seq.update a_1327 i3 (seq.unit e3))))
(assert (= a_1329 (seq.update a_1328 i37 (seq.unit e37))))
(assert (= a_1330 (seq.update a_1329 i11 (seq.unit e11))))
(assert (= a_1331 (seq.update a_1330 i17 (seq.unit e17))))
(assert (= a_1332 (seq.update a_1331 i30 (seq.unit e30))))
(assert (= a_1333 (seq.update a_1332 i26 (seq.unit e26))))
(assert (= a_1334 (seq.update a_1333 i10 (seq.unit e10))))
(assert (= a_1335 (seq.update a_1334 i38 (seq.unit e38))))
(assert (= a_1336 (seq.update a_1335 i18 (seq.unit e18))))
(assert (= a_1337 (seq.update a_1336 i4 (seq.unit e4))))
(assert (= a_1338 (seq.update a_1337 i6 (seq.unit e6))))
(assert (= a_1339 (seq.update a_1338 i22 (seq.unit e22))))
(assert (= a_1340 (seq.update a_1339 i25 (seq.unit e25))))
(assert (= a_1341 (seq.update a_1340 i19 (seq.unit e19))))
(assert (= a_1342 (seq.update a_1341 i31 (seq.unit e31))))
(assert (= a_1343 (seq.update a_1342 i35 (seq.unit e35))))
(assert (= a_1344 (seq.update a_1343 i2 (seq.unit e2))))
(assert (= a_1345 (seq.update a_1344 i1 (seq.unit e1))))
(assert (= a_1346 (seq.update a_1345 i24 (seq.unit e24))))
(assert (= a_1347 (seq.update a_1346 i28 (seq.unit e28))))
(assert (= a_1348 (seq.update a_1347 i7 (seq.unit e7))))
(assert (= a_1349 (seq.update a_1348 i13 (seq.unit e13))))
(assert (= a_1350 (seq.update a_1349 i23 (seq.unit e23))))
(assert (= a_1351 (seq.update a_1350 i15 (seq.unit e15))))
(assert (= a_1352 (seq.update a_1351 i16 (seq.unit e16))))
(assert (= a_1353 (seq.update a_1352 i40 (seq.unit e40))))
(assert (= a_1354 (seq.update a_1353 i5 (seq.unit e5))))
(assert (= a_1355 (seq.update a_1354 i20 (seq.unit e20))))
(assert (= a_1356 (seq.update a_1355 i29 (seq.unit e29))))
(assert (= a_1357 (seq.update a_1356 i21 (seq.unit e21))))
(assert (= a_1358 (seq.update a_1357 i39 (seq.unit e39))))
(assert (not (= i39 i40)))
(assert (not (= i38 i40)))
(assert (not (= i38 i39)))
(assert (not (= i37 i40)))
(assert (not (= i37 i39)))
(assert (not (= i37 i38)))
(assert (not (= i36 i40)))
(assert (not (= i36 i39)))
(assert (not (= i36 i38)))
(assert (not (= i36 i37)))
(assert (not (= i35 i40)))
(assert (not (= i35 i39)))
(assert (not (= i35 i38)))
(assert (not (= i35 i37)))
(assert (not (= i35 i36)))
(assert (not (= i34 i40)))
(assert (not (= i34 i39)))
(assert (not (= i34 i38)))
(assert (not (= i34 i37)))
(assert (not (= i34 i36)))
(assert (not (= i34 i35)))
(assert (not (= i33 i40)))
(assert (not (= i33 i39)))
(assert (not (= i33 i38)))
(assert (not (= i33 i37)))
(assert (not (= i33 i36)))
(assert (not (= i33 i35)))
(assert (not (= i33 i34)))
(assert (not (= i32 i40)))
(assert (not (= i32 i39)))
(assert (not (= i32 i38)))
(assert (not (= i32 i37)))
(assert (not (= i32 i36)))
(assert (not (= i32 i35)))
(assert (not (= i32 i34)))
(assert (not (= i32 i33)))
(assert (not (= i31 i40)))
(assert (not (= i31 i39)))
(assert (not (= i31 i38)))
(assert (not (= i31 i37)))
(assert (not (= i31 i36)))
(assert (not (= i31 i35)))
(assert (not (= i31 i34)))
(assert (not (= i31 i33)))
(assert (not (= i31 i32)))
(assert (not (= i30 i40)))
(assert (not (= i30 i39)))
(assert (not (= i30 i38)))
(assert (not (= i30 i37)))
(assert (not (= i30 i36)))
(assert (not (= i30 i35)))
(assert (not (= i30 i34)))
(assert (not (= i30 i33)))
(assert (not (= i30 i32)))
(assert (not (= i30 i31)))
(assert (not (= i29 i40)))
(assert (not (= i29 i39)))
(assert (not (= i29 i38)))
(assert (not (= i29 i37)))
(assert (not (= i29 i36)))
(assert (not (= i29 i35)))
(assert (not (= i29 i34)))
(assert (not (= i29 i33)))
(assert (not (= i29 i32)))
(assert (not (= i29 i31)))
(assert (not (= i29 i30)))
(assert (not (= i28 i40)))
(assert (not (= i28 i39)))
(assert (not (= i28 i38)))
(assert (not (= i28 i37)))
(assert (not (= i28 i36)))
(assert (not (= i28 i35)))
(assert (not (= i28 i34)))
(assert (not (= i28 i33)))
(assert (not (= i28 i32)))
(assert (not (= i28 i31)))
(assert (not (= i28 i30)))
(assert (not (= i28 i29)))
(assert (not (= i27 i40)))
(assert (not (= i27 i39)))
(assert (not (= i27 i38)))
(assert (not (= i27 i37)))
(assert (not (= i27 i36)))
(assert (not (= i27 i35)))
(assert (not (= i27 i34)))
(assert (not (= i27 i33)))
(assert (not (= i27 i32)))
(assert (not (= i27 i31)))
(assert (not (= i27 i30)))
(assert (not (= i27 i29)))
(assert (not (= i27 i28)))
(assert (not (= i26 i40)))
(assert (not (= i26 i39)))
(assert (not (= i26 i38)))
(assert (not (= i26 i37)))
(assert (not (= i26 i36)))
(assert (not (= i26 i35)))
(assert (not (= i26 i34)))
(assert (not (= i26 i33)))
(assert (not (= i26 i32)))
(assert (not (= i26 i31)))
(assert (not (= i26 i30)))
(assert (not (= i26 i29)))
(assert (not (= i26 i28)))
(assert (not (= i26 i27)))
(assert (not (= i25 i40)))
(assert (not (= i25 i39)))
(assert (not (= i25 i38)))
(assert (not (= i25 i37)))
(assert (not (= i25 i36)))
(assert (not (= i25 i35)))
(assert (not (= i25 i34)))
(assert (not (= i25 i33)))
(assert (not (= i25 i32)))
(assert (not (= i25 i31)))
(assert (not (= i25 i30)))
(assert (not (= i25 i29)))
(assert (not (= i25 i28)))
(assert (not (= i25 i27)))
(assert (not (= i25 i26)))
(assert (not (= i24 i40)))
(assert (not (= i24 i39)))
(assert (not (= i24 i38)))
(assert (not (= i24 i37)))
(assert (not (= i24 i36)))
(assert (not (= i24 i35)))
(assert (not (= i24 i34)))
(assert (not (= i24 i33)))
(assert (not (= i24 i32)))
(assert (not (= i24 i31)))
(assert (not (= i24 i30)))
(assert (not (= i24 i29)))
(assert (not (= i24 i28)))
(assert (not (= i24 i27)))
(assert (not (= i24 i26)))
(assert (not (= i24 i25)))
(assert (not (= i23 i40)))
(assert (not (= i23 i39)))
(assert (not (= i23 i38)))
(assert (not (= i23 i37)))
(assert (not (= i23 i36)))
(assert (not (= i23 i35)))
(assert (not (= i23 i34)))
(assert (not (= i23 i33)))
(assert (not (= i23 i32)))
(assert (not (= i23 i31)))
(assert (not (= i23 i30)))
(assert (not (= i23 i29)))
(assert (not (= i23 i28)))
(assert (not (= i23 i27)))
(assert (not (= i23 i26)))
(assert (not (= i23 i25)))
(assert (not (= i23 i24)))
(assert (not (= i22 i40)))
(assert (not (= i22 i39)))
(assert (not (= i22 i38)))
(assert (not (= i22 i37)))
(assert (not (= i22 i36)))
(assert (not (= i22 i35)))
(assert (not (= i22 i34)))
(assert (not (= i22 i33)))
(assert (not (= i22 i32)))
(assert (not (= i22 i31)))
(assert (not (= i22 i30)))
(assert (not (= i22 i29)))
(assert (not (= i22 i28)))
(assert (not (= i22 i27)))
(assert (not (= i22 i26)))
(assert (not (= i22 i25)))
(assert (not (= i22 i24)))
(assert (not (= i22 i23)))
(assert (not (= i21 i40)))
(assert (not (= i21 i39)))
(assert (not (= i21 i38)))
(assert (not (= i21 i37)))
(assert (not (= i21 i36)))
(assert (not (= i21 i35)))
(assert (not (= i21 i34)))
(assert (not (= i21 i33)))
(assert (not (= i21 i32)))
(assert (not (= i21 i31)))
(assert (not (= i21 i30)))
(assert (not (= i21 i29)))
(assert (not (= i21 i28)))
(assert (not (= i21 i27)))
(assert (not (= i21 i26)))
(assert (not (= i21 i25)))
(assert (not (= i21 i24)))
(assert (not (= i21 i23)))
(assert (not (= i21 i22)))
(assert (not (= i20 i40)))
(assert (not (= i20 i39)))
(assert (not (= i20 i38)))
(assert (not (= i20 i37)))
(assert (not (= i20 i36)))
(assert (not (= i20 i35)))
(assert (not (= i20 i34)))
(assert (not (= i20 i33)))
(assert (not (= i20 i32)))
(assert (not (= i20 i31)))
(assert (not (= i20 i30)))
(assert (not (= i20 i29)))
(assert (not (= i20 i28)))
(assert (not (= i20 i27)))
(assert (not (= i20 i26)))
(assert (not (= i20 i25)))
(assert (not (= i20 i24)))
(assert (not (= i20 i23)))
(assert (not (= i20 i22)))
(assert (not (= i20 i21)))
(assert (not (= i19 i40)))
(assert (not (= i19 i39)))
(assert (not (= i19 i38)))
(assert (not (= i19 i37)))
(assert (not (= i19 i36)))
(assert (not (= i19 i35)))
(assert (not (= i19 i34)))
(assert (not (= i19 i33)))
(assert (not (= i19 i32)))
(assert (not (= i19 i31)))
(assert (not (= i19 i30)))
(assert (not (= i19 i29)))
(assert (not (= i19 i28)))
(assert (not (= i19 i27)))
(assert (not (= i19 i26)))
(assert (not (= i19 i25)))
(assert (not (= i19 i24)))
(assert (not (= i19 i23)))
(assert (not (= i19 i22)))
(assert (not (= i19 i21)))
(assert (not (= i19 i20)))
(assert (not (= i18 i40)))
(assert (not (= i18 i39)))
(assert (not (= i18 i38)))
(assert (not (= i18 i37)))
(assert (not (= i18 i36)))
(assert (not (= i18 i35)))
(assert (not (= i18 i34)))
(assert (not (= i18 i33)))
(assert (not (= i18 i32)))
(assert (not (= i18 i31)))
(assert (not (= i18 i30)))
(assert (not (= i18 i29)))
(assert (not (= i18 i28)))
(assert (not (= i18 i27)))
(assert (not (= i18 i26)))
(assert (not (= i18 i25)))
(assert (not (= i18 i24)))
(assert (not (= i18 i23)))
(assert (not (= i18 i22)))
(assert (not (= i18 i21)))
(assert (not (= i18 i20)))
(assert (not (= i18 i19)))
(assert (not (= i17 i40)))
(assert (not (= i17 i39)))
(assert (not (= i17 i38)))
(assert (not (= i17 i37)))
(assert (not (= i17 i36)))
(assert (not (= i17 i35)))
(assert (not (= i17 i34)))
(assert (not (= i17 i33)))
(assert (not (= i17 i32)))
(assert (not (= i17 i31)))
(assert (not (= i17 i30)))
(assert (not (= i17 i29)))
(assert (not (= i17 i28)))
(assert (not (= i17 i27)))
(assert (not (= i17 i26)))
(assert (not (= i17 i25)))
(assert (not (= i17 i24)))
(assert (not (= i17 i23)))
(assert (not (= i17 i22)))
(assert (not (= i17 i21)))
(assert (not (= i17 i20)))
(assert (not (= i17 i19)))
(assert (not (= i17 i18)))
(assert (not (= i16 i40)))
(assert (not (= i16 i39)))
(assert (not (= i16 i38)))
(assert (not (= i16 i37)))
(assert (not (= i16 i36)))
(assert (not (= i16 i35)))
(assert (not (= i16 i34)))
(assert (not (= i16 i33)))
(assert (not (= i16 i32)))
(assert (not (= i16 i31)))
(assert (not (= i16 i30)))
(assert (not (= i16 i29)))
(assert (not (= i16 i28)))
(assert (not (= i16 i27)))
(assert (not (= i16 i26)))
(assert (not (= i16 i25)))
(assert (not (= i16 i24)))
(assert (not (= i16 i23)))
(assert (not (= i16 i22)))
(assert (not (= i16 i21)))
(assert (not (= i16 i20)))
(assert (not (= i16 i19)))
(assert (not (= i16 i18)))
(assert (not (= i16 i17)))
(assert (not (= i15 i40)))
(assert (not (= i15 i39)))
(assert (not (= i15 i38)))
(assert (not (= i15 i37)))
(assert (not (= i15 i36)))
(assert (not (= i15 i35)))
(assert (not (= i15 i34)))
(assert (not (= i15 i33)))
(assert (not (= i15 i32)))
(assert (not (= i15 i31)))
(assert (not (= i15 i30)))
(assert (not (= i15 i29)))
(assert (not (= i15 i28)))
(assert (not (= i15 i27)))
(assert (not (= i15 i26)))
(assert (not (= i15 i25)))
(assert (not (= i15 i24)))
(assert (not (= i15 i23)))
(assert (not (= i15 i22)))
(assert (not (= i15 i21)))
(assert (not (= i15 i20)))
(assert (not (= i15 i19)))
(assert (not (= i15 i18)))
(assert (not (= i15 i17)))
(assert (not (= i15 i16)))
(assert (not (= i14 i40)))
(assert (not (= i14 i39)))
(assert (not (= i14 i38)))
(assert (not (= i14 i37)))
(assert (not (= i14 i36)))
(assert (not (= i14 i35)))
(assert (not (= i14 i34)))
(assert (not (= i14 i33)))
(assert (not (= i14 i32)))
(assert (not (= i14 i31)))
(assert (not (= i14 i30)))
(assert (not (= i14 i29)))
(assert (not (= i14 i28)))
(assert (not (= i14 i27)))
(assert (not (= i14 i26)))
(assert (not (= i14 i25)))
(assert (not (= i14 i24)))
(assert (not (= i14 i23)))
(assert (not (= i14 i22)))
(assert (not (= i14 i21)))
(assert (not (= i14 i20)))
(assert (not (= i14 i19)))
(assert (not (= i14 i18)))
(assert (not (= i14 i17)))
(assert (not (= i14 i16)))
(assert (not (= i14 i15)))
(assert (not (= i13 i40)))
(assert (not (= i13 i39)))
(assert (not (= i13 i38)))
(assert (not (= i13 i37)))
(assert (not (= i13 i36)))
(assert (not (= i13 i35)))
(assert (not (= i13 i34)))
(assert (not (= i13 i33)))
(assert (not (= i13 i32)))
(assert (not (= i13 i31)))
(assert (not (= i13 i30)))
(assert (not (= i13 i29)))
(assert (not (= i13 i28)))
(assert (not (= i13 i27)))
(assert (not (= i13 i26)))
(assert (not (= i13 i25)))
(assert (not (= i13 i24)))
(assert (not (= i13 i23)))
(assert (not (= i13 i22)))
(assert (not (= i13 i21)))
(assert (not (= i13 i20)))
(assert (not (= i13 i19)))
(assert (not (= i13 i18)))
(assert (not (= i13 i17)))
(assert (not (= i13 i16)))
(assert (not (= i13 i15)))
(assert (not (= i13 i14)))
(assert (not (= i12 i40)))
(assert (not (= i12 i39)))
(assert (not (= i12 i38)))
(assert (not (= i12 i37)))
(assert (not (= i12 i36)))
(assert (not (= i12 i35)))
(assert (not (= i12 i34)))
(assert (not (= i12 i33)))
(assert (not (= i12 i32)))
(assert (not (= i12 i31)))
(assert (not (= i12 i30)))
(assert (not (= i12 i29)))
(assert (not (= i12 i28)))
(assert (not (= i12 i27)))
(assert (not (= i12 i26)))
(assert (not (= i12 i25)))
(assert (not (= i12 i24)))
(assert (not (= i12 i23)))
(assert (not (= i12 i22)))
(assert (not (= i12 i21)))
(assert (not (= i12 i20)))
(assert (not (= i12 i19)))
(assert (not (= i12 i18)))
(assert (not (= i12 i17)))
(assert (not (= i12 i16)))
(assert (not (= i12 i15)))
(assert (not (= i12 i14)))
(assert (not (= i12 i13)))
(assert (not (= i11 i40)))
(assert (not (= i11 i39)))
(assert (not (= i11 i38)))
(assert (not (= i11 i37)))
(assert (not (= i11 i36)))
(assert (not (= i11 i35)))
(assert (not (= i11 i34)))
(assert (not (= i11 i33)))
(assert (not (= i11 i32)))
(assert (not (= i11 i31)))
(assert (not (= i11 i30)))
(assert (not (= i11 i29)))
(assert (not (= i11 i28)))
(assert (not (= i11 i27)))
(assert (not (= i11 i26)))
(assert (not (= i11 i25)))
(assert (not (= i11 i24)))
(assert (not (= i11 i23)))
(assert (not (= i11 i22)))
(assert (not (= i11 i21)))
(assert (not (= i11 i20)))
(assert (not (= i11 i19)))
(assert (not (= i11 i18)))
(assert (not (= i11 i17)))
(assert (not (= i11 i16)))
(assert (not (= i11 i15)))
(assert (not (= i11 i14)))
(assert (not (= i11 i13)))
(assert (not (= i11 i12)))
(assert (not (= i10 i40)))
(assert (not (= i10 i39)))
(assert (not (= i10 i38)))
(assert (not (= i10 i37)))
(assert (not (= i10 i36)))
(assert (not (= i10 i35)))
(assert (not (= i10 i34)))
(assert (not (= i10 i33)))
(assert (not (= i10 i32)))
(assert (not (= i10 i31)))
(assert (not (= i10 i30)))
(assert (not (= i10 i29)))
(assert (not (= i10 i28)))
(assert (not (= i10 i27)))
(assert (not (= i10 i26)))
(assert (not (= i10 i25)))
(assert (not (= i10 i24)))
(assert (not (= i10 i23)))
(assert (not (= i10 i22)))
(assert (not (= i10 i21)))
(assert (not (= i10 i20)))
(assert (not (= i10 i19)))
(assert (not (= i10 i18)))
(assert (not (= i10 i17)))
(assert (not (= i10 i16)))
(assert (not (= i10 i15)))
(assert (not (= i10 i14)))
(assert (not (= i10 i13)))
(assert (not (= i10 i12)))
(assert (not (= i10 i11)))
(assert (not (= i9 i40)))
(assert (not (= i9 i39)))
(assert (not (= i9 i38)))
(assert (not (= i9 i37)))
(assert (not (= i9 i36)))
(assert (not (= i9 i35)))
(assert (not (= i9 i34)))
(assert (not (= i9 i33)))
(assert (not (= i9 i32)))
(assert (not (= i9 i31)))
(assert (not (= i9 i30)))
(assert (not (= i9 i29)))
(assert (not (= i9 i28)))
(assert (not (= i9 i27)))
(assert (not (= i9 i26)))
(assert (not (= i9 i25)))
(assert (not (= i9 i24)))
(assert (not (= i9 i23)))
(assert (not (= i9 i22)))
(assert (not (= i9 i21)))
(assert (not (= i9 i20)))
(assert (not (= i9 i19)))
(assert (not (= i9 i18)))
(assert (not (= i9 i17)))
(assert (not (= i9 i16)))
(assert (not (= i9 i15)))
(assert (not (= i9 i14)))
(assert (not (= i9 i13)))
(assert (not (= i9 i12)))
(assert (not (= i9 i11)))
(assert (not (= i9 i10)))
(assert (not (= i8 i40)))
(assert (not (= i8 i39)))
(assert (not (= i8 i38)))
(assert (not (= i8 i37)))
(assert (not (= i8 i36)))
(assert (not (= i8 i35)))
(assert (not (= i8 i34)))
(assert (not (= i8 i33)))
(assert (not (= i8 i32)))
(assert (not (= i8 i31)))
(assert (not (= i8 i30)))
(assert (not (= i8 i29)))
(assert (not (= i8 i28)))
(assert (not (= i8 i27)))
(assert (not (= i8 i26)))
(assert (not (= i8 i25)))
(assert (not (= i8 i24)))
(assert (not (= i8 i23)))
(assert (not (= i8 i22)))
(assert (not (= i8 i21)))
(assert (not (= i8 i20)))
(assert (not (= i8 i19)))
(assert (not (= i8 i18)))
(assert (not (= i8 i17)))
(assert (not (= i8 i16)))
(assert (not (= i8 i15)))
(assert (not (= i8 i14)))
(assert (not (= i8 i13)))
(assert (not (= i8 i12)))
(assert (not (= i8 i11)))
(assert (not (= i8 i10)))
(assert (not (= i8 i9)))
(assert (not (= i7 i40)))
(assert (not (= i7 i39)))
(assert (not (= i7 i38)))
(assert (not (= i7 i37)))
(assert (not (= i7 i36)))
(assert (not (= i7 i35)))
(assert (not (= i7 i34)))
(assert (not (= i7 i33)))
(assert (not (= i7 i32)))
(assert (not (= i7 i31)))
(assert (not (= i7 i30)))
(assert (not (= i7 i29)))
(assert (not (= i7 i28)))
(assert (not (= i7 i27)))
(assert (not (= i7 i26)))
(assert (not (= i7 i25)))
(assert (not (= i7 i24)))
(assert (not (= i7 i23)))
(assert (not (= i7 i22)))
(assert (not (= i7 i21)))
(assert (not (= i7 i20)))
(assert (not (= i7 i19)))
(assert (not (= i7 i18)))
(assert (not (= i7 i17)))
(assert (not (= i7 i16)))
(assert (not (= i7 i15)))
(assert (not (= i7 i14)))
(assert (not (= i7 i13)))
(assert (not (= i7 i12)))
(assert (not (= i7 i11)))
(assert (not (= i7 i10)))
(assert (not (= i7 i9)))
(assert (not (= i7 i8)))
(assert (not (= i6 i40)))
(assert (not (= i6 i39)))
(assert (not (= i6 i38)))
(assert (not (= i6 i37)))
(assert (not (= i6 i36)))
(assert (not (= i6 i35)))
(assert (not (= i6 i34)))
(assert (not (= i6 i33)))
(assert (not (= i6 i32)))
(assert (not (= i6 i31)))
(assert (not (= i6 i30)))
(assert (not (= i6 i29)))
(assert (not (= i6 i28)))
(assert (not (= i6 i27)))
(assert (not (= i6 i26)))
(assert (not (= i6 i25)))
(assert (not (= i6 i24)))
(assert (not (= i6 i23)))
(assert (not (= i6 i22)))
(assert (not (= i6 i21)))
(assert (not (= i6 i20)))
(assert (not (= i6 i19)))
(assert (not (= i6 i18)))
(assert (not (= i6 i17)))
(assert (not (= i6 i16)))
(assert (not (= i6 i15)))
(assert (not (= i6 i14)))
(assert (not (= i6 i13)))
(assert (not (= i6 i12)))
(assert (not (= i6 i11)))
(assert (not (= i6 i10)))
(assert (not (= i6 i9)))
(assert (not (= i6 i8)))
(assert (not (= i6 i7)))
(assert (not (= i5 i40)))
(assert (not (= i5 i39)))
(assert (not (= i5 i38)))
(assert (not (= i5 i37)))
(assert (not (= i5 i36)))
(assert (not (= i5 i35)))
(assert (not (= i5 i34)))
(assert (not (= i5 i33)))
(assert (not (= i5 i32)))
(assert (not (= i5 i31)))
(assert (not (= i5 i30)))
(assert (not (= i5 i29)))
(assert (not (= i5 i28)))
(assert (not (= i5 i27)))
(assert (not (= i5 i26)))
(assert (not (= i5 i25)))
(assert (not (= i5 i24)))
(assert (not (= i5 i23)))
(assert (not (= i5 i22)))
(assert (not (= i5 i21)))
(assert (not (= i5 i20)))
(assert (not (= i5 i19)))
(assert (not (= i5 i18)))
(assert (not (= i5 i17)))
(assert (not (= i5 i16)))
(assert (not (= i5 i15)))
(assert (not (= i5 i14)))
(assert (not (= i5 i13)))
(assert (not (= i5 i12)))
(assert (not (= i5 i11)))
(assert (not (= i5 i10)))
(assert (not (= i5 i9)))
(assert (not (= i5 i8)))
(assert (not (= i5 i7)))
(assert (not (= i5 i6)))
(assert (not (= i4 i40)))
(assert (not (= i4 i39)))
(assert (not (= i4 i38)))
(assert (not (= i4 i37)))
(assert (not (= i4 i36)))
(assert (not (= i4 i35)))
(assert (not (= i4 i34)))
(assert (not (= i4 i33)))
(assert (not (= i4 i32)))
(assert (not (= i4 i31)))
(assert (not (= i4 i30)))
(assert (not (= i4 i29)))
(assert (not (= i4 i28)))
(assert (not (= i4 i27)))
(assert (not (= i4 i26)))
(assert (not (= i4 i25)))
(assert (not (= i4 i24)))
(assert (not (= i4 i23)))
(assert (not (= i4 i22)))
(assert (not (= i4 i21)))
(assert (not (= i4 i20)))
(assert (not (= i4 i19)))
(assert (not (= i4 i18)))
(assert (not (= i4 i17)))
(assert (not (= i4 i16)))
(assert (not (= i4 i15)))
(assert (not (= i4 i14)))
(assert (not (= i4 i13)))
(assert (not (= i4 i12)))
(assert (not (= i4 i11)))
(assert (not (= i4 i10)))
(assert (not (= i4 i9)))
(assert (not (= i4 i8)))
(assert (not (= i4 i7)))
(assert (not (= i4 i6)))
(assert (not (= i4 i5)))
(assert (not (= i3 i40)))
(assert (not (= i3 i39)))
(assert (not (= i3 i38)))
(assert (not (= i3 i37)))
(assert (not (= i3 i36)))
(assert (not (= i3 i35)))
(assert (not (= i3 i34)))
(assert (not (= i3 i33)))
(assert (not (= i3 i32)))
(assert (not (= i3 i31)))
(assert (not (= i3 i30)))
(assert (not (= i3 i29)))
(assert (not (= i3 i28)))
(assert (not (= i3 i27)))
(assert (not (= i3 i26)))
(assert (not (= i3 i25)))
(assert (not (= i3 i24)))
(assert (not (= i3 i23)))
(assert (not (= i3 i22)))
(assert (not (= i3 i21)))
(assert (not (= i3 i20)))
(assert (not (= i3 i19)))
(assert (not (= i3 i18)))
(assert (not (= i3 i17)))
(assert (not (= i3 i16)))
(assert (not (= i3 i15)))
(assert (not (= i3 i14)))
(assert (not (= i3 i13)))
(assert (not (= i3 i12)))
(assert (not (= i3 i11)))
(assert (not (= i3 i10)))
(assert (not (= i3 i9)))
(assert (not (= i3 i8)))
(assert (not (= i3 i7)))
(assert (not (= i3 i6)))
(assert (not (= i3 i5)))
(assert (not (= i3 i4)))
(assert (not (= i2 i40)))
(assert (not (= i2 i39)))
(assert (not (= i2 i38)))
(assert (not (= i2 i37)))
(assert (not (= i2 i36)))
(assert (not (= i2 i35)))
(assert (not (= i2 i34)))
(assert (not (= i2 i33)))
(assert (not (= i2 i32)))
(assert (not (= i2 i31)))
(assert (not (= i2 i30)))
(assert (not (= i2 i29)))
(assert (not (= i2 i28)))
(assert (not (= i2 i27)))
(assert (not (= i2 i26)))
(assert (not (= i2 i25)))
(assert (not (= i2 i24)))
(assert (not (= i2 i23)))
(assert (not (= i2 i22)))
(assert (not (= i2 i21)))
(assert (not (= i2 i20)))
(assert (not (= i2 i19)))
(assert (not (= i2 i18)))
(assert (not (= i2 i17)))
(assert (not (= i2 i16)))
(assert (not (= i2 i15)))
(assert (not (= i2 i14)))
(assert (not (= i2 i13)))
(assert (not (= i2 i12)))
(assert (not (= i2 i11)))
(assert (not (= i2 i10)))
(assert (not (= i2 i9)))
(assert (not (= i2 i8)))
(assert (not (= i2 i7)))
(assert (not (= i2 i6)))
(assert (not (= i2 i5)))
(assert (not (= i2 i4)))
(assert (not (= i2 i3)))
(assert (not (= i1 i40)))
(assert (not (= i1 i39)))
(assert (not (= i1 i38)))
(assert (not (= i1 i37)))
(assert (not (= i1 i36)))
(assert (not (= i1 i35)))
(assert (not (= i1 i34)))
(assert (not (= i1 i33)))
(assert (not (= i1 i32)))
(assert (not (= i1 i31)))
(assert (not (= i1 i30)))
(assert (not (= i1 i29)))
(assert (not (= i1 i28)))
(assert (not (= i1 i27)))
(assert (not (= i1 i26)))
(assert (not (= i1 i25)))
(assert (not (= i1 i24)))
(assert (not (= i1 i23)))
(assert (not (= i1 i22)))
(assert (not (= i1 i21)))
(assert (not (= i1 i20)))
(assert (not (= i1 i19)))
(assert (not (= i1 i18)))
(assert (not (= i1 i17)))
(assert (not (= i1 i16)))
(assert (not (= i1 i15)))
(assert (not (= i1 i14)))
(assert (not (= i1 i13)))
(assert (not (= i1 i12)))
(assert (not (= i1 i11)))
(assert (not (= i1 i10)))
(assert (not (= i1 i9)))
(assert (not (= i1 i8)))
(assert (not (= i1 i7)))
(assert (not (= i1 i6)))
(assert (not (= i1 i5)))
(assert (not (= i1 i4)))
(assert (not (= i1 i3)))
(assert (not (= i1 i2)))
(assert (not (= a_1318 a_1358)))
(check-sat)
(exit)
